sat
(model 
  (define-fun var1 () Bool
    false)
  (define-fun var3 () Bool
    false)
  (define-fun var4 () Bool
    false)
  (define-fun var5 () Bool
    false)
  (define-fun var2 () Bool
    false)
)